width = 30;

n_circuits = 28;

circuit_x = array1d(1..28, [9, 9, 9, 9, 4, 4, 1, 1, 4, 3, 3, 12, 12, 14, 2, 2, 8,
    8, 12, 12, 6, 6, 2, 2, 3, 3, 3, 3]);

circuit_y = array1d(1..28, [24, 8, 11, 17, 24, 8, 6, 5, 17, 6, 5, 5, 13, 14, 14,
    2, 3, 9, 14, 2, 3, 9, 5, 13, 18, 14, 16, 12]);

opt_height = 60;

max_y = 24;

